sat
(:binary-propagations  200
 :decisions            150
 :del-clause           100
 :final-checks         3
 :max-generation       1
 :max-memory           23.48
 :memory               20.93
 :mk-bool-var          500
 :mk-clause            150
 :mk-clause-binary     300
 :num-allocs           7435586
 :num-checks           1
 :propagations         250
 :quant-instantiations 100
 :restarts             2
 :rlimit-count         97773
 :time                 0.03)
